16686 15876 100 99 98 97 96 95 94 93 92 91 90 89 88 87 86 85 84 83 82 81 80 78 77 76 75 74 73 72 71 70 69 68 67 66 65 64 63 62 61 60 59 58 56 55 53 52 51 50 49 46 44 43 42 41 40 38 37 36 34 33 32 31 30 29 27 24 23 22 19 18 17 15 13 12 11 10 9 8 7 4 3 